# Solution for model r3_t27_m5_4 Batch Number: 4
# Finished Task: 26 / 27
# Makespan: 970.0, Total Distance: 689.0, Total Time: 11.8236
# R O S F Batch
0 0 15 0.0 0.0 -1
1 1 9 0.0 0.0 -1
2 2 5 0.0 0.0 -1
3 0 27 446.0 475.0 1
4 1 21 735.0 769.0 2
5 2 11 250.0 275.0 0
6 2 10 322.0 344.0 0
7 1 23 528.0 562.0 0
8 1 14 226.0 254.0 0
9 1 8 161.0 193.0 0
10 2 19 466.0 497.0 0
11 2 6 301.0 322.0 0
12 1 7 447.0 484.0 0
13 2 26 793.0 824.0 2
14 1 20 309.0 329.0 0
15 0 3 409.0 436.0 1
16 0 -1 610.0 649.0 2
17 2 18 643.0 674.0 1
18 2 13 708.0 735.0 2
19 2 17 523.0 562.0 0
20 1 12 406.0 435.0 0
21 1 25 786.0 822.0 3
22 -1 -1 -1.0 -1.0 2
23 1 24 576.0 605.0 1
24 1 4 645.0 674.0 1
25 1 28 822.0 854.0 3
26 2 29 847.0 886.0 3
27 0 16 553.0 592.0 1
28 1 -1 873.0 905.0 3
29 2 -1 933.0 970.0 3
